c nIsolatedPIs 0
c maxPI 16
p cnf 95 238
c gate 17 7 -15 0
7 -17 0
-15 -17 0
-7 15 17 0
c gate 18 -8 16 0
-8 -18 0
16 -18 0
8 -16 18 0
c gate 19 -17 18 0
-17 -19 0
18 -19 0
17 -18 19 0
c gate 20 8 -16 0
8 -20 0
-16 -20 0
-8 16 20 0
c gate 21 -7 15 0
-7 -21 0
15 -21 0
7 -15 21 0
c gate 22 -6 14 0
-6 -22 0
14 -22 0
6 -14 22 0
c gate 23 5 -13 0
5 -23 0
-13 -23 0
-5 13 23 0
c gate 24 6 -14 0
6 -24 0
-14 -24 0
-6 14 24 0
c gate 25 -23 -24 0
-23 -25 0
-24 -25 0
23 24 25 0
c gate 26 -22 -25 0
-22 -26 0
-25 -26 0
22 25 26 0
c gate 27 -17 -26 0
-17 -27 0
-26 -27 0
17 26 27 0
c gate 28 -21 -27 0
-21 -28 0
-27 -28 0
21 27 28 0
c gate 29 20 28 0
20 -29 0
28 -29 0
-20 -28 29 0
c gate 30 -19 -29 0
-19 -30 0
-29 -30 0
19 29 30 0
c gate 31 -18 -20 0
-18 -31 0
-20 -31 0
18 20 31 0
c gate 32 -4 12 0
-4 -32 0
12 -32 0
4 -12 32 0
c gate 33 2 -10 0
2 -33 0
-10 -33 0
-2 10 33 0
c gate 34 -1 9 0
-1 -34 0
9 -34 0
1 -9 34 0
c gate 35 -33 34 0
-33 -35 0
34 -35 0
33 -34 35 0
c gate 36 -2 10 0
-2 -36 0
10 -36 0
2 -10 36 0
c gate 37 -3 11 0
-3 -37 0
11 -37 0
3 -11 37 0
c gate 38 -36 -37 0
-36 -38 0
-37 -38 0
36 37 38 0
c gate 39 -35 38 0
-35 -39 0
38 -39 0
35 -38 39 0
c gate 40 4 -12 0
4 -40 0
-12 -40 0
-4 12 40 0
c gate 41 3 -11 0
3 -41 0
-11 -41 0
-3 11 41 0
c gate 42 -40 -41 0
-40 -42 0
-41 -42 0
40 41 42 0
c gate 43 -39 42 0
-39 -43 0
42 -43 0
39 -42 43 0
c gate 44 -32 -43 0
-32 -44 0
-43 -44 0
32 43 44 0
c gate 45 -5 13 0
-5 -45 0
13 -45 0
5 -13 45 0
c gate 46 -22 -45 0
-22 -46 0
-45 -46 0
22 45 46 0
c gate 47 25 46 0
25 -47 0
46 -47 0
-25 -46 47 0
c gate 48 44 47 0
44 -48 0
47 -48 0
-44 -47 48 0
c gate 49 -26 -48 0
-26 -49 0
-48 -49 0
26 48 49 0
c gate 50 -36 -41 0
-36 -50 0
-41 -50 0
36 41 50 0
c gate 51 1 -9 0
1 -51 0
-9 -51 0
-1 9 51 0
c gate 52 -33 -51 0
-33 -52 0
-51 -52 0
33 51 52 0
c gate 53 50 52 0
50 -53 0
52 -53 0
-50 -52 53 0
c gate 54 39 53 0
39 -54 0
53 -54 0
-39 -53 54 0
c gate 55 -40 54 0
-40 -55 0
54 -55 0
40 -54 55 0
c gate 56 44 55 0
44 -56 0
55 -56 0
-44 -55 56 0
c gate 57 -17 -21 0
-17 -57 0
-21 -57 0
17 21 57 0
c gate 58 31 57 0
31 -58 0
57 -58 0
-31 -57 58 0
c gate 59 47 58 0
47 -59 0
58 -59 0
-47 -58 59 0
c gate 60 56 59 0
56 -60 0
59 -60 0
-56 -59 60 0
c gate 61 -20 -28 0
-20 -61 0
-28 -61 0
20 28 61 0
c gate 62 -18 -61 0
-18 -62 0
-61 -62 0
18 61 62 0
c gate 63 44 59 0
44 -63 0
59 -63 0
-44 -59 63 0
c gate 64 -62 -63 0
-62 -64 0
-63 -64 0
62 63 64 0
c gate 65 -60 -64 0
-60 -65 0
-64 -65 0
60 64 65 0
c gate 66 -49 65 0
-49 -66 0
65 -66 0
49 -65 66 0
c gate 67 -26 56 0
-26 -67 0
56 -67 0
26 -56 67 0
c gate 68 -49 -67 0
-49 -68 0
-67 -68 0
49 67 68 0
c gate 69 -65 -68 0
-65 -69 0
-68 -69 0
65 68 69 0
c gate 70 -66 -69 0
-66 -70 0
-69 -70 0
66 69 70 0
c gate 71 -26 -57 0
-26 -71 0
-57 -71 0
26 57 71 0
c gate 72 62 71 0
62 -72 0
71 -72 0
-62 -71 72 0
c gate 73 70 72 0
70 -73 0
72 -73 0
-70 -72 73 0
c gate 74 -66 -73 0
-66 -74 0
-73 -74 0
66 73 74 0
c gate 75 -21 -74 0
-21 -75 0
-74 -75 0
21 74 75 0
c gate 76 57 68 0
57 -76 0
68 -76 0
-57 -68 76 0
c gate 77 -28 -65 0
-28 -77 0
-65 -77 0
28 65 77 0
c gate 78 -76 77 0
-76 -78 0
77 -78 0
76 -77 78 0
c gate 79 -75 -78 0
-75 -79 0
-78 -79 0
75 78 79 0
c gate 80 -31 -79 0
-31 -80 0
-79 -80 0
31 79 80 0
c gate 81 -30 -80 0
-30 -81 0
-80 -81 0
30 80 81 0
c gate 82 30 80 0
30 -82 0
80 -82 0
-30 -80 82 0
c gate 83 -70 -72 0
-70 -83 0
-72 -83 0
70 72 83 0
c gate 84 -73 -83 0
-73 -84 0
-83 -84 0
73 83 84 0
c gate 85 -23 -45 0
-23 -85 0
-45 -85 0
23 45 85 0
c gate 86 -40 -54 0
-40 -86 0
-54 -86 0
40 54 86 0
c gate 87 -85 -86 0
-85 -87 0
-86 -87 0
85 86 87 0
c gate 88 44 -87 0
44 -88 0
-87 -88 0
-44 87 88 0
c gate 89 -65 -88 0
-65 -89 0
-88 -89 0
65 88 89 0
c gate 90 56 85 0
56 -90 0
85 -90 0
-56 -85 90 0
c gate 91 -62 -90 0
-62 -91 0
-90 -91 0
62 90 91 0
c gate 92 -89 91 0
-89 -92 0
91 -92 0
89 -91 92 0
c gate 93 -84 -92 0
-84 -93 0
-92 -93 0
84 92 93 0
c gate 94 -82 93 0
-82 -94 0
93 -94 0
82 -93 94 0
c gate 95 -81 94 0
-81 -95 0
94 -95 0
81 -94 95 0
c PO
-95 0
